data/lp_files/pEFS/87_9.lp
\ Model foo
\ LP format - for model browsing. Use MPS format to capture full model detail.
Minimize
  z
Subject To
 allocateEach[1]: x[1,1] + x[2,1] + x[3,1] + x[4,1] + x[5,1] = 1
 allocateEach[2]: x[1,2] + x[2,2] + x[3,2] + x[4,2] + x[5,2] = 1
 allocateEach[3]: x[1,3] + x[2,3] + x[3,3] + x[4,3] + x[5,3] = 1
 allocateEach[4]: x[1,4] + x[2,4] + x[3,4] + x[4,4] + x[5,4] = 1
 allocateEach[5]: x[1,5] + x[2,5] + x[3,5] + x[4,5] + x[5,5] = 1
 allocateEach[6]: x[1,6] + x[2,6] + x[3,6] + x[4,6] + x[5,6] = 1
 allocateEach[7]: x[1,7] + x[2,7] + x[3,7] + x[4,7] + x[5,7] = 1
 allocateAllCash: cashProportion[1] + cashProportion[2] + cashProportion[3]
   + cashProportion[4] + cashProportion[5] = 1
 findWorstP[1,2]: z + 0.2445525910347021 cashProportion[1]
   - 0.2445525910347021 cashProportion[2] + 0.1726052187522927 x[1,1]
   + 0.2395392629184906 x[1,2] + 0.00645618840331613 x[1,3]
   + 0.0524565307769436 x[1,4] + 0.0837103519111785 x[1,5]
   + 0.0532146438091512 x[1,6] + 0.1474652123939253 x[1,7]
   - 0.1726052187522927 x[2,1] - 0.2395392629184906 x[2,2]
   - 0.00645618840331613 x[2,3] - 0.0524565307769436 x[2,4]
   - 0.0837103519111785 x[2,5] - 0.0532146438091512 x[2,6]
   - 0.1474652123939253 x[2,7] >= 0
 findWorstP[1,3]: z + 0.2445525910347021 cashProportion[1]
   - 0.2445525910347021 cashProportion[3] + 0.1726052187522927 x[1,1]
   + 0.2395392629184906 x[1,2] + 0.00645618840331613 x[1,3]
   + 0.0524565307769436 x[1,4] + 0.0837103519111785 x[1,5]
   + 0.0532146438091512 x[1,6] + 0.1474652123939253 x[1,7]
   - 0.1726052187522927 x[3,1] - 0.2395392629184906 x[3,2]
   - 0.00645618840331613 x[3,3] - 0.0524565307769436 x[3,4]
   - 0.0837103519111785 x[3,5] - 0.0532146438091512 x[3,6]
   - 0.1474652123939253 x[3,7] >= 0
 findWorstP[1,4]: z + 0.2445525910347021 cashProportion[1]
   - 0.2445525910347021 cashProportion[4] + 0.1726052187522927 x[1,1]
   + 0.2395392629184906 x[1,2] + 0.00645618840331613 x[1,3]
   + 0.0524565307769436 x[1,4] + 0.0837103519111785 x[1,5]
   + 0.0532146438091512 x[1,6] + 0.1474652123939253 x[1,7]
   - 0.1726052187522927 x[4,1] - 0.2395392629184906 x[4,2]
   - 0.00645618840331613 x[4,3] - 0.0524565307769436 x[4,4]
   - 0.0837103519111785 x[4,5] - 0.0532146438091512 x[4,6]
   - 0.1474652123939253 x[4,7] >= 0
 findWorstP[1,5]: z + 0.2445525910347021 cashProportion[1]
   - 0.2445525910347021 cashProportion[5] + 0.1726052187522927 x[1,1]
   + 0.2395392629184906 x[1,2] + 0.00645618840331613 x[1,3]
   + 0.0524565307769436 x[1,4] + 0.0837103519111785 x[1,5]
   + 0.0532146438091512 x[1,6] + 0.1474652123939253 x[1,7]
   - 0.1726052187522927 x[5,1] - 0.2395392629184906 x[5,2]
   - 0.00645618840331613 x[5,3] - 0.0524565307769436 x[5,4]
   - 0.0837103519111785 x[5,5] - 0.0532146438091512 x[5,6]
   - 0.1474652123939253 x[5,7] >= 0
 findWorstP[2,1]: z - 0.1997682688081825 cashProportion[1]
   + 0.1997682688081825 cashProportion[2] - 0.160913340524991 x[1,1]
   - 0.1802309321187422 x[1,2] - 0.0135842422789564 x[1,3]
   - 0.1683447201246554 x[1,4] - 0.1076750968876104 x[1,5]
   - 0.1456710216149267 x[1,6] - 0.0238123776419354 x[1,7]
   + 0.160913340524991 x[2,1] + 0.1802309321187422 x[2,2]
   + 0.0135842422789564 x[2,3] + 0.1683447201246554 x[2,4]
   + 0.1076750968876104 x[2,5] + 0.1456710216149267 x[2,6]
   + 0.0238123776419354 x[2,7] >= 0
 findWorstP[2,3]: z + 0.1997682688081825 cashProportion[2]
   - 0.1997682688081825 cashProportion[3] + 0.160913340524991 x[2,1]
   + 0.1802309321187422 x[2,2] + 0.0135842422789564 x[2,3]
   + 0.1683447201246554 x[2,4] + 0.1076750968876104 x[2,5]
   + 0.1456710216149267 x[2,6] + 0.0238123776419354 x[2,7]
   - 0.160913340524991 x[3,1] - 0.1802309321187422 x[3,2]
   - 0.0135842422789564 x[3,3] - 0.1683447201246554 x[3,4]
   - 0.1076750968876104 x[3,5] - 0.1456710216149267 x[3,6]
   - 0.0238123776419354 x[3,7] >= 0
 findWorstP[2,4]: z + 0.1997682688081825 cashProportion[2]
   - 0.1997682688081825 cashProportion[4] + 0.160913340524991 x[2,1]
   + 0.1802309321187422 x[2,2] + 0.0135842422789564 x[2,3]
   + 0.1683447201246554 x[2,4] + 0.1076750968876104 x[2,5]
   + 0.1456710216149267 x[2,6] + 0.0238123776419354 x[2,7]
   - 0.160913340524991 x[4,1] - 0.1802309321187422 x[4,2]
   - 0.0135842422789564 x[4,3] - 0.1683447201246554 x[4,4]
   - 0.1076750968876104 x[4,5] - 0.1456710216149267 x[4,6]
   - 0.0238123776419354 x[4,7] >= 0
 findWorstP[2,5]: z + 0.1997682688081825 cashProportion[2]
   - 0.1997682688081825 cashProportion[5] + 0.160913340524991 x[2,1]
   + 0.1802309321187422 x[2,2] + 0.0135842422789564 x[2,3]
   + 0.1683447201246554 x[2,4] + 0.1076750968876104 x[2,5]
   + 0.1456710216149267 x[2,6] + 0.0238123776419354 x[2,7]
   - 0.160913340524991 x[5,1] - 0.1802309321187422 x[5,2]
   - 0.0135842422789564 x[5,3] - 0.1683447201246554 x[5,4]
   - 0.1076750968876104 x[5,5] - 0.1456710216149267 x[5,6]
   - 0.0238123776419354 x[5,7] >= 0
 findWorstP[3,1]: z - 0.2238689023707717 cashProportion[1]
   + 0.2238689023707717 cashProportion[3] - 0.0407217533412434 x[1,1]
   - 0.1299558978262329 x[1,2] - 0.2199735834695202 x[1,3]
   - 0.0298193377957868 x[1,4] - 0.1130761825874768 x[1,5]
   - 0.2227943316393919 x[1,6] - 0.0197900109695762 x[1,7]
   + 0.0407217533412434 x[3,1] + 0.1299558978262329 x[3,2]
   + 0.2199735834695202 x[3,3] + 0.0298193377957868 x[3,4]
   + 0.1130761825874768 x[3,5] + 0.2227943316393919 x[3,6]
   + 0.0197900109695762 x[3,7] >= 0
 findWorstP[3,2]: z - 0.2238689023707717 cashProportion[2]
   + 0.2238689023707717 cashProportion[3] - 0.0407217533412434 x[2,1]
   - 0.1299558978262329 x[2,2] - 0.2199735834695202 x[2,3]
   - 0.0298193377957868 x[2,4] - 0.1130761825874768 x[2,5]
   - 0.2227943316393919 x[2,6] - 0.0197900109695762 x[2,7]
   + 0.0407217533412434 x[3,1] + 0.1299558978262329 x[3,2]
   + 0.2199735834695202 x[3,3] + 0.0298193377957868 x[3,4]
   + 0.1130761825874768 x[3,5] + 0.2227943316393919 x[3,6]
   + 0.0197900109695762 x[3,7] >= 0
 findWorstP[3,4]: z + 0.2238689023707717 cashProportion[3]
   - 0.2238689023707717 cashProportion[4] + 0.0407217533412434 x[3,1]
   + 0.1299558978262329 x[3,2] + 0.2199735834695202 x[3,3]
   + 0.0298193377957868 x[3,4] + 0.1130761825874768 x[3,5]
   + 0.2227943316393919 x[3,6] + 0.0197900109695762 x[3,7]
   - 0.0407217533412434 x[4,1] - 0.1299558978262329 x[4,2]
   - 0.2199735834695202 x[4,3] - 0.0298193377957868 x[4,4]
   - 0.1130761825874768 x[4,5] - 0.2227943316393919 x[4,6]
   - 0.0197900109695762 x[4,7] >= 0
 findWorstP[3,5]: z + 0.2238689023707717 cashProportion[3]
   - 0.2238689023707717 cashProportion[5] + 0.0407217533412434 x[3,1]
   + 0.1299558978262329 x[3,2] + 0.2199735834695202 x[3,3]
   + 0.0298193377957868 x[3,4] + 0.1130761825874768 x[3,5]
   + 0.2227943316393919 x[3,6] + 0.0197900109695762 x[3,7]
   - 0.0407217533412434 x[5,1] - 0.1299558978262329 x[5,2]
   - 0.2199735834695202 x[5,3] - 0.0298193377957868 x[5,4]
   - 0.1130761825874768 x[5,5] - 0.2227943316393919 x[5,6]
   - 0.0197900109695762 x[5,7] >= 0
 findWorstP[4,1]: z - 0.1719927075092016 cashProportion[1]
   + 0.1719927075092016 cashProportion[4] - 0.1719927075092016 x[1,1]
   - 0.1454886312820337 x[1,2] - 0.1453682363867772 x[1,3]
   - 0.0265900725809226 x[1,4] - 0.1538302775962299 x[1,5]
   - 0.0892986137387775 x[1,6] - 0.095438753396856 x[1,7]
   + 0.1719927075092016 x[4,1] + 0.1454886312820337 x[4,2]
   + 0.1453682363867772 x[4,3] + 0.0265900725809226 x[4,4]
   + 0.1538302775962299 x[4,5] + 0.0892986137387775 x[4,6]
   + 0.095438753396856 x[4,7] >= 0
 findWorstP[4,2]: z - 0.1719927075092016 cashProportion[2]
   + 0.1719927075092016 cashProportion[4] - 0.1719927075092016 x[2,1]
   - 0.1454886312820337 x[2,2] - 0.1453682363867772 x[2,3]
   - 0.0265900725809226 x[2,4] - 0.1538302775962299 x[2,5]
   - 0.0892986137387775 x[2,6] - 0.095438753396856 x[2,7]
   + 0.1719927075092016 x[4,1] + 0.1454886312820337 x[4,2]
   + 0.1453682363867772 x[4,3] + 0.0265900725809226 x[4,4]
   + 0.1538302775962299 x[4,5] + 0.0892986137387775 x[4,6]
   + 0.095438753396856 x[4,7] >= 0
 findWorstP[4,3]: z - 0.1719927075092016 cashProportion[3]
   + 0.1719927075092016 cashProportion[4] - 0.1719927075092016 x[3,1]
   - 0.1454886312820337 x[3,2] - 0.1453682363867772 x[3,3]
   - 0.0265900725809226 x[3,4] - 0.1538302775962299 x[3,5]
   - 0.0892986137387775 x[3,6] - 0.095438753396856 x[3,7]
   + 0.1719927075092016 x[4,1] + 0.1454886312820337 x[4,2]
   + 0.1453682363867772 x[4,3] + 0.0265900725809226 x[4,4]
   + 0.1538302775962299 x[4,5] + 0.0892986137387775 x[4,6]
   + 0.095438753396856 x[4,7] >= 0
 findWorstP[4,5]: z + 0.1719927075092016 cashProportion[4]
   - 0.1719927075092016 cashProportion[5] + 0.1719927075092016 x[4,1]
   + 0.1454886312820337 x[4,2] + 0.1453682363867772 x[4,3]
   + 0.0265900725809226 x[4,4] + 0.1538302775962299 x[4,5]
   + 0.0892986137387775 x[4,6] + 0.095438753396856 x[4,7]
   - 0.1719927075092016 x[5,1] - 0.1454886312820337 x[5,2]
   - 0.1453682363867772 x[5,3] - 0.0265900725809226 x[5,4]
   - 0.1538302775962299 x[5,5] - 0.0892986137387775 x[5,6]
   - 0.095438753396856 x[5,7] >= 0
 findWorstP[5,1]: z - 0.2389714668068633 cashProportion[1]
   + 0.2389714668068633 cashProportion[5] - 0.1168092529751948 x[1,1]
   - 0.00234192037470726 x[1,2] - 0.0434450126654877 x[1,3]
   - 0.2235100129044592 x[1,4] - 0.1257706829804522 x[1,5]
   - 0.1143956411604455 x[1,6] - 0.1347560101323902 x[1,7]
   + 0.1168092529751948 x[5,1] + 0.00234192037470726 x[5,2]
   + 0.0434450126654877 x[5,3] + 0.2235100129044592 x[5,4]
   + 0.1257706829804522 x[5,5] + 0.1143956411604455 x[5,6]
   + 0.1347560101323902 x[5,7] >= 0
 findWorstP[5,2]: z - 0.2389714668068633 cashProportion[2]
   + 0.2389714668068633 cashProportion[5] - 0.1168092529751948 x[2,1]
   - 0.00234192037470726 x[2,2] - 0.0434450126654877 x[2,3]
   - 0.2235100129044592 x[2,4] - 0.1257706829804522 x[2,5]
   - 0.1143956411604455 x[2,6] - 0.1347560101323902 x[2,7]
   + 0.1168092529751948 x[5,1] + 0.00234192037470726 x[5,2]
   + 0.0434450126654877 x[5,3] + 0.2235100129044592 x[5,4]
   + 0.1257706829804522 x[5,5] + 0.1143956411604455 x[5,6]
   + 0.1347560101323902 x[5,7] >= 0
 findWorstP[5,3]: z - 0.2389714668068633 cashProportion[3]
   + 0.2389714668068633 cashProportion[5] - 0.1168092529751948 x[3,1]
   - 0.00234192037470726 x[3,2] - 0.0434450126654877 x[3,3]
   - 0.2235100129044592 x[3,4] - 0.1257706829804522 x[3,5]
   - 0.1143956411604455 x[3,6] - 0.1347560101323902 x[3,7]
   + 0.1168092529751948 x[5,1] + 0.00234192037470726 x[5,2]
   + 0.0434450126654877 x[5,3] + 0.2235100129044592 x[5,4]
   + 0.1257706829804522 x[5,5] + 0.1143956411604455 x[5,6]
   + 0.1347560101323902 x[5,7] >= 0
 findWorstP[5,4]: z - 0.2389714668068633 cashProportion[4]
   + 0.2389714668068633 cashProportion[5] - 0.1168092529751948 x[4,1]
   - 0.00234192037470726 x[4,2] - 0.0434450126654877 x[4,3]
   - 0.2235100129044592 x[4,4] - 0.1257706829804522 x[4,5]
   - 0.1143956411604455 x[4,6] - 0.1347560101323902 x[4,7]
   + 0.1168092529751948 x[5,1] + 0.00234192037470726 x[5,2]
   + 0.0434450126654877 x[5,3] + 0.2235100129044592 x[5,4]
   + 0.1257706829804522 x[5,5] + 0.1143956411604455 x[5,6]
   + 0.1347560101323902 x[5,7] >= 0
Bounds
 z <= 1
 -infinity <= cashProportion[1] <= 1
 -infinity <= cashProportion[2] <= 1
 -infinity <= cashProportion[3] <= 1
 -infinity <= cashProportion[4] <= 1
 -infinity <= cashProportion[5] <= 1
Binaries
 x[1,1] x[1,2] x[1,3] x[1,4] x[1,5] x[1,6] x[1,7] x[2,1] x[2,2] x[2,3]
 x[2,4] x[2,5] x[2,6] x[2,7] x[3,1] x[3,2] x[3,3] x[3,4] x[3,5] x[3,6]
 x[3,7] x[4,1] x[4,2] x[4,3] x[4,4] x[4,5] x[4,6] x[4,7] x[5,1] x[5,2]
 x[5,3] x[5,4] x[5,5] x[5,6] x[5,7]
End
