data/mps_files/q3/87_9.mps
NAME foo
ROWS
 N  OBJ
 E  allocateEach[1]
 E  allocateEach[2]
 E  allocateEach[3]
 E  allocateEach[4]
 E  allocateEach[5]
 E  allocateEach[6]
 E  allocateEach[7]
 E  allocateAllCash
 G  findWorstP[1,2]
 G  findWorstP[1,3]
 G  findWorstP[1,4]
 G  findWorstP[1,5]
 G  findWorstP[2,1]
 G  findWorstP[2,3]
 G  findWorstP[2,4]
 G  findWorstP[2,5]
 G  findWorstP[3,1]
 G  findWorstP[3,2]
 G  findWorstP[3,4]
 G  findWorstP[3,5]
 G  findWorstP[4,1]
 G  findWorstP[4,2]
 G  findWorstP[4,3]
 G  findWorstP[4,5]
 G  findWorstP[5,1]
 G  findWorstP[5,2]
 G  findWorstP[5,3]
 G  findWorstP[5,4]
COLUMNS
    z         OBJ       1
    z         findWorstP[1,2]  1
    z         findWorstP[1,3]  1
    z         findWorstP[1,4]  1
    z         findWorstP[1,5]  1
    z         findWorstP[2,1]  1
    z         findWorstP[2,3]  1
    z         findWorstP[2,4]  1
    z         findWorstP[2,5]  1
    z         findWorstP[3,1]  1
    z         findWorstP[3,2]  1
    z         findWorstP[3,4]  1
    z         findWorstP[3,5]  1
    z         findWorstP[4,1]  1
    z         findWorstP[4,2]  1
    z         findWorstP[4,3]  1
    z         findWorstP[4,5]  1
    z         findWorstP[5,1]  1
    z         findWorstP[5,2]  1
    z         findWorstP[5,3]  1
    z         findWorstP[5,4]  1
    cashProportion[1]  allocateAllCash  1
    cashProportion[1]  findWorstP[1,2]  2.4455259103470206e-01
    cashProportion[1]  findWorstP[1,3]  2.4455259103470206e-01
    cashProportion[1]  findWorstP[1,4]  2.4455259103470206e-01
    cashProportion[1]  findWorstP[1,5]  2.4455259103470206e-01
    cashProportion[1]  findWorstP[2,1]  -1.9976826880818255e-01
    cashProportion[1]  findWorstP[3,1]  -2.2386890237077170e-01
    cashProportion[1]  findWorstP[4,1]  -1.7199270750920165e-01
    cashProportion[1]  findWorstP[5,1]  -2.3897146680686335e-01
    cashProportion[2]  allocateAllCash  1
    cashProportion[2]  findWorstP[1,2]  -2.4455259103470206e-01
    cashProportion[2]  findWorstP[2,1]  1.9976826880818255e-01
    cashProportion[2]  findWorstP[2,3]  1.9976826880818255e-01
    cashProportion[2]  findWorstP[2,4]  1.9976826880818255e-01
    cashProportion[2]  findWorstP[2,5]  1.9976826880818255e-01
    cashProportion[2]  findWorstP[3,2]  -2.2386890237077170e-01
    cashProportion[2]  findWorstP[4,2]  -1.7199270750920165e-01
    cashProportion[2]  findWorstP[5,2]  -2.3897146680686335e-01
    cashProportion[3]  allocateAllCash  1
    cashProportion[3]  findWorstP[1,3]  -2.4455259103470206e-01
    cashProportion[3]  findWorstP[2,3]  -1.9976826880818255e-01
    cashProportion[3]  findWorstP[3,1]  2.2386890237077170e-01
    cashProportion[3]  findWorstP[3,2]  2.2386890237077170e-01
    cashProportion[3]  findWorstP[3,4]  2.2386890237077170e-01
    cashProportion[3]  findWorstP[3,5]  2.2386890237077170e-01
    cashProportion[3]  findWorstP[4,3]  -1.7199270750920165e-01
    cashProportion[3]  findWorstP[5,3]  -2.3897146680686335e-01
    cashProportion[4]  allocateAllCash  1
    cashProportion[4]  findWorstP[1,4]  -2.4455259103470206e-01
    cashProportion[4]  findWorstP[2,4]  -1.9976826880818255e-01
    cashProportion[4]  findWorstP[3,4]  -2.2386890237077170e-01
    cashProportion[4]  findWorstP[4,1]  1.7199270750920165e-01
    cashProportion[4]  findWorstP[4,2]  1.7199270750920165e-01
    cashProportion[4]  findWorstP[4,3]  1.7199270750920165e-01
    cashProportion[4]  findWorstP[4,5]  1.7199270750920165e-01
    cashProportion[4]  findWorstP[5,4]  -2.3897146680686335e-01
    cashProportion[5]  allocateAllCash  1
    cashProportion[5]  findWorstP[1,5]  -2.4455259103470206e-01
    cashProportion[5]  findWorstP[2,5]  -1.9976826880818255e-01
    cashProportion[5]  findWorstP[3,5]  -2.2386890237077170e-01
    cashProportion[5]  findWorstP[4,5]  -1.7199270750920165e-01
    cashProportion[5]  findWorstP[5,1]  2.3897146680686335e-01
    cashProportion[5]  findWorstP[5,2]  2.3897146680686335e-01
    cashProportion[5]  findWorstP[5,3]  2.3897146680686335e-01
    cashProportion[5]  findWorstP[5,4]  2.3897146680686335e-01
    MARKER    'MARKER'                 'INTORG'
    x[1,1]    allocateEach[1]  1
    x[1,1]    findWorstP[1,2]  1.7260521875229268e-01
    x[1,1]    findWorstP[1,3]  1.7260521875229268e-01
    x[1,1]    findWorstP[1,4]  1.7260521875229268e-01
    x[1,1]    findWorstP[1,5]  1.7260521875229268e-01
    x[1,1]    findWorstP[2,1]  -1.6091334052499098e-01
    x[1,1]    findWorstP[3,1]  -4.0721753341243366e-02
    x[1,1]    findWorstP[4,1]  -1.7199270750920162e-01
    x[1,1]    findWorstP[5,1]  -1.1680925297519477e-01
    x[1,2]    allocateEach[2]  1
    x[1,2]    findWorstP[1,2]  2.3953926291849062e-01
    x[1,2]    findWorstP[1,3]  2.3953926291849062e-01
    x[1,2]    findWorstP[1,4]  2.3953926291849062e-01
    x[1,2]    findWorstP[1,5]  2.3953926291849062e-01
    x[1,2]    findWorstP[2,1]  -1.8023093211874225e-01
    x[1,2]    findWorstP[3,1]  -1.2995589782623293e-01
    x[1,2]    findWorstP[4,1]  -1.4548863128203365e-01
    x[1,2]    findWorstP[5,1]  -2.3419203747072604e-03
    x[1,3]    allocateEach[3]  1
    x[1,3]    findWorstP[1,2]  6.4561884033161330e-03
    x[1,3]    findWorstP[1,3]  6.4561884033161330e-03
    x[1,3]    findWorstP[1,4]  6.4561884033161330e-03
    x[1,3]    findWorstP[1,5]  6.4561884033161330e-03
    x[1,3]    findWorstP[2,1]  -1.3584242278956410e-02
    x[1,3]    findWorstP[3,1]  -2.1997358346952023e-01
    x[1,3]    findWorstP[4,1]  -1.4536823638677721e-01
    x[1,3]    findWorstP[5,1]  -4.3445012665487746e-02
    x[1,4]    allocateEach[4]  1
    x[1,4]    findWorstP[1,2]  5.2456530776943580e-02
    x[1,4]    findWorstP[1,3]  5.2456530776943580e-02
    x[1,4]    findWorstP[1,4]  5.2456530776943580e-02
    x[1,4]    findWorstP[1,5]  5.2456530776943580e-02
    x[1,4]    findWorstP[2,1]  -1.6834472012465540e-01
    x[1,4]    findWorstP[3,1]  -2.9819337795786785e-02
    x[1,4]    findWorstP[4,1]  -2.6590072580922570e-02
    x[1,4]    findWorstP[5,1]  -2.2351001290445924e-01
    x[1,5]    allocateEach[5]  1
    x[1,5]    findWorstP[1,2]  0.0837103519111785
    x[1,5]    findWorstP[1,3]  0.0837103519111785
    x[1,5]    findWorstP[1,4]  0.0837103519111785
    x[1,5]    findWorstP[1,5]  0.0837103519111785
    x[1,5]    findWorstP[2,1]  -1.0767509688761037e-01
    x[1,5]    findWorstP[3,1]  -1.1307618258747676e-01
    x[1,5]    findWorstP[4,1]  -1.5383027759622991e-01
    x[1,5]    findWorstP[5,1]  -1.2577068298045216e-01
    x[1,6]    allocateEach[6]  1
    x[1,6]    findWorstP[1,2]  5.3214643809151155e-02
    x[1,6]    findWorstP[1,3]  5.3214643809151155e-02
    x[1,6]    findWorstP[1,4]  5.3214643809151155e-02
    x[1,6]    findWorstP[1,5]  5.3214643809151155e-02
    x[1,6]    findWorstP[2,1]  -1.4567102161492668e-01
    x[1,6]    findWorstP[3,1]  -2.2279433163939194e-01
    x[1,6]    findWorstP[4,1]  -8.9298613738777483e-02
    x[1,6]    findWorstP[5,1]  -1.1439564116044545e-01
    x[1,7]    allocateEach[7]  1
    x[1,7]    findWorstP[1,2]  1.4746521239392529e-01
    x[1,7]    findWorstP[1,3]  1.4746521239392529e-01
    x[1,7]    findWorstP[1,4]  1.4746521239392529e-01
    x[1,7]    findWorstP[1,5]  1.4746521239392529e-01
    x[1,7]    findWorstP[2,1]  -2.3812377641935355e-02
    x[1,7]    findWorstP[3,1]  -1.9790010969576215e-02
    x[1,7]    findWorstP[4,1]  -9.5438753396855966e-02
    x[1,7]    findWorstP[5,1]  -1.3475601013239019e-01
    x[2,1]    allocateEach[1]  1
    x[2,1]    findWorstP[1,2]  -1.7260521875229268e-01
    x[2,1]    findWorstP[2,1]  1.6091334052499098e-01
    x[2,1]    findWorstP[2,3]  1.6091334052499098e-01
    x[2,1]    findWorstP[2,4]  1.6091334052499098e-01
    x[2,1]    findWorstP[2,5]  1.6091334052499098e-01
    x[2,1]    findWorstP[3,2]  -4.0721753341243366e-02
    x[2,1]    findWorstP[4,2]  -1.7199270750920162e-01
    x[2,1]    findWorstP[5,2]  -1.1680925297519477e-01
    x[2,2]    allocateEach[2]  1
    x[2,2]    findWorstP[1,2]  -2.3953926291849062e-01
    x[2,2]    findWorstP[2,1]  1.8023093211874225e-01
    x[2,2]    findWorstP[2,3]  1.8023093211874225e-01
    x[2,2]    findWorstP[2,4]  1.8023093211874225e-01
    x[2,2]    findWorstP[2,5]  1.8023093211874225e-01
    x[2,2]    findWorstP[3,2]  -1.2995589782623293e-01
    x[2,2]    findWorstP[4,2]  -1.4548863128203365e-01
    x[2,2]    findWorstP[5,2]  -2.3419203747072604e-03
    x[2,3]    allocateEach[3]  1
    x[2,3]    findWorstP[1,2]  -6.4561884033161330e-03
    x[2,3]    findWorstP[2,1]  1.3584242278956410e-02
    x[2,3]    findWorstP[2,3]  1.3584242278956410e-02
    x[2,3]    findWorstP[2,4]  1.3584242278956410e-02
    x[2,3]    findWorstP[2,5]  1.3584242278956410e-02
    x[2,3]    findWorstP[3,2]  -2.1997358346952023e-01
    x[2,3]    findWorstP[4,2]  -1.4536823638677721e-01
    x[2,3]    findWorstP[5,2]  -4.3445012665487746e-02
    x[2,4]    allocateEach[4]  1
    x[2,4]    findWorstP[1,2]  -5.2456530776943580e-02
    x[2,4]    findWorstP[2,1]  1.6834472012465540e-01
    x[2,4]    findWorstP[2,3]  1.6834472012465540e-01
    x[2,4]    findWorstP[2,4]  1.6834472012465540e-01
    x[2,4]    findWorstP[2,5]  1.6834472012465540e-01
    x[2,4]    findWorstP[3,2]  -2.9819337795786785e-02
    x[2,4]    findWorstP[4,2]  -2.6590072580922570e-02
    x[2,4]    findWorstP[5,2]  -2.2351001290445924e-01
    x[2,5]    allocateEach[5]  1
    x[2,5]    findWorstP[1,2]  -0.0837103519111785
    x[2,5]    findWorstP[2,1]  1.0767509688761037e-01
    x[2,5]    findWorstP[2,3]  1.0767509688761037e-01
    x[2,5]    findWorstP[2,4]  1.0767509688761037e-01
    x[2,5]    findWorstP[2,5]  1.0767509688761037e-01
    x[2,5]    findWorstP[3,2]  -1.1307618258747676e-01
    x[2,5]    findWorstP[4,2]  -1.5383027759622991e-01
    x[2,5]    findWorstP[5,2]  -1.2577068298045216e-01
    x[2,6]    allocateEach[6]  1
    x[2,6]    findWorstP[1,2]  -5.3214643809151155e-02
    x[2,6]    findWorstP[2,1]  1.4567102161492668e-01
    x[2,6]    findWorstP[2,3]  1.4567102161492668e-01
    x[2,6]    findWorstP[2,4]  1.4567102161492668e-01
    x[2,6]    findWorstP[2,5]  1.4567102161492668e-01
    x[2,6]    findWorstP[3,2]  -2.2279433163939194e-01
    x[2,6]    findWorstP[4,2]  -8.9298613738777483e-02
    x[2,6]    findWorstP[5,2]  -1.1439564116044545e-01
    x[2,7]    allocateEach[7]  1
    x[2,7]    findWorstP[1,2]  -1.4746521239392529e-01
    x[2,7]    findWorstP[2,1]  2.3812377641935355e-02
    x[2,7]    findWorstP[2,3]  2.3812377641935355e-02
    x[2,7]    findWorstP[2,4]  2.3812377641935355e-02
    x[2,7]    findWorstP[2,5]  2.3812377641935355e-02
    x[2,7]    findWorstP[3,2]  -1.9790010969576215e-02
    x[2,7]    findWorstP[4,2]  -9.5438753396855966e-02
    x[2,7]    findWorstP[5,2]  -1.3475601013239019e-01
    x[3,1]    allocateEach[1]  1
    x[3,1]    findWorstP[1,3]  -1.7260521875229268e-01
    x[3,1]    findWorstP[2,3]  -1.6091334052499098e-01
    x[3,1]    findWorstP[3,1]  4.0721753341243366e-02
    x[3,1]    findWorstP[3,2]  4.0721753341243366e-02
    x[3,1]    findWorstP[3,4]  4.0721753341243366e-02
    x[3,1]    findWorstP[3,5]  4.0721753341243366e-02
    x[3,1]    findWorstP[4,3]  -1.7199270750920162e-01
    x[3,1]    findWorstP[5,3]  -1.1680925297519477e-01
    x[3,2]    allocateEach[2]  1
    x[3,2]    findWorstP[1,3]  -2.3953926291849062e-01
    x[3,2]    findWorstP[2,3]  -1.8023093211874225e-01
    x[3,2]    findWorstP[3,1]  1.2995589782623293e-01
    x[3,2]    findWorstP[3,2]  1.2995589782623293e-01
    x[3,2]    findWorstP[3,4]  1.2995589782623293e-01
    x[3,2]    findWorstP[3,5]  1.2995589782623293e-01
    x[3,2]    findWorstP[4,3]  -1.4548863128203365e-01
    x[3,2]    findWorstP[5,3]  -2.3419203747072604e-03
    x[3,3]    allocateEach[3]  1
    x[3,3]    findWorstP[1,3]  -6.4561884033161330e-03
    x[3,3]    findWorstP[2,3]  -1.3584242278956410e-02
    x[3,3]    findWorstP[3,1]  2.1997358346952023e-01
    x[3,3]    findWorstP[3,2]  2.1997358346952023e-01
    x[3,3]    findWorstP[3,4]  2.1997358346952023e-01
    x[3,3]    findWorstP[3,5]  2.1997358346952023e-01
    x[3,3]    findWorstP[4,3]  -1.4536823638677721e-01
    x[3,3]    findWorstP[5,3]  -4.3445012665487746e-02
    x[3,4]    allocateEach[4]  1
    x[3,4]    findWorstP[1,3]  -5.2456530776943580e-02
    x[3,4]    findWorstP[2,3]  -1.6834472012465540e-01
    x[3,4]    findWorstP[3,1]  2.9819337795786785e-02
    x[3,4]    findWorstP[3,2]  2.9819337795786785e-02
    x[3,4]    findWorstP[3,4]  2.9819337795786785e-02
    x[3,4]    findWorstP[3,5]  2.9819337795786785e-02
    x[3,4]    findWorstP[4,3]  -2.6590072580922570e-02
    x[3,4]    findWorstP[5,3]  -2.2351001290445924e-01
    x[3,5]    allocateEach[5]  1
    x[3,5]    findWorstP[1,3]  -0.0837103519111785
    x[3,5]    findWorstP[2,3]  -1.0767509688761037e-01
    x[3,5]    findWorstP[3,1]  1.1307618258747676e-01
    x[3,5]    findWorstP[3,2]  1.1307618258747676e-01
    x[3,5]    findWorstP[3,4]  1.1307618258747676e-01
    x[3,5]    findWorstP[3,5]  1.1307618258747676e-01
    x[3,5]    findWorstP[4,3]  -1.5383027759622991e-01
    x[3,5]    findWorstP[5,3]  -1.2577068298045216e-01
    x[3,6]    allocateEach[6]  1
    x[3,6]    findWorstP[1,3]  -5.3214643809151155e-02
    x[3,6]    findWorstP[2,3]  -1.4567102161492668e-01
    x[3,6]    findWorstP[3,1]  2.2279433163939194e-01
    x[3,6]    findWorstP[3,2]  2.2279433163939194e-01
    x[3,6]    findWorstP[3,4]  2.2279433163939194e-01
    x[3,6]    findWorstP[3,5]  2.2279433163939194e-01
    x[3,6]    findWorstP[4,3]  -8.9298613738777483e-02
    x[3,6]    findWorstP[5,3]  -1.1439564116044545e-01
    x[3,7]    allocateEach[7]  1
    x[3,7]    findWorstP[1,3]  -1.4746521239392529e-01
    x[3,7]    findWorstP[2,3]  -2.3812377641935355e-02
    x[3,7]    findWorstP[3,1]  1.9790010969576215e-02
    x[3,7]    findWorstP[3,2]  1.9790010969576215e-02
    x[3,7]    findWorstP[3,4]  1.9790010969576215e-02
    x[3,7]    findWorstP[3,5]  1.9790010969576215e-02
    x[3,7]    findWorstP[4,3]  -9.5438753396855966e-02
    x[3,7]    findWorstP[5,3]  -1.3475601013239019e-01
    x[4,1]    allocateEach[1]  1
    x[4,1]    findWorstP[1,4]  -1.7260521875229268e-01
    x[4,1]    findWorstP[2,4]  -1.6091334052499098e-01
    x[4,1]    findWorstP[3,4]  -4.0721753341243366e-02
    x[4,1]    findWorstP[4,1]  1.7199270750920162e-01
    x[4,1]    findWorstP[4,2]  1.7199270750920162e-01
    x[4,1]    findWorstP[4,3]  1.7199270750920162e-01
    x[4,1]    findWorstP[4,5]  1.7199270750920162e-01
    x[4,1]    findWorstP[5,4]  -1.1680925297519477e-01
    x[4,2]    allocateEach[2]  1
    x[4,2]    findWorstP[1,4]  -2.3953926291849062e-01
    x[4,2]    findWorstP[2,4]  -1.8023093211874225e-01
    x[4,2]    findWorstP[3,4]  -1.2995589782623293e-01
    x[4,2]    findWorstP[4,1]  1.4548863128203365e-01
    x[4,2]    findWorstP[4,2]  1.4548863128203365e-01
    x[4,2]    findWorstP[4,3]  1.4548863128203365e-01
    x[4,2]    findWorstP[4,5]  1.4548863128203365e-01
    x[4,2]    findWorstP[5,4]  -2.3419203747072604e-03
    x[4,3]    allocateEach[3]  1
    x[4,3]    findWorstP[1,4]  -6.4561884033161330e-03
    x[4,3]    findWorstP[2,4]  -1.3584242278956410e-02
    x[4,3]    findWorstP[3,4]  -2.1997358346952023e-01
    x[4,3]    findWorstP[4,1]  1.4536823638677721e-01
    x[4,3]    findWorstP[4,2]  1.4536823638677721e-01
    x[4,3]    findWorstP[4,3]  1.4536823638677721e-01
    x[4,3]    findWorstP[4,5]  1.4536823638677721e-01
    x[4,3]    findWorstP[5,4]  -4.3445012665487746e-02
    x[4,4]    allocateEach[4]  1
    x[4,4]    findWorstP[1,4]  -5.2456530776943580e-02
    x[4,4]    findWorstP[2,4]  -1.6834472012465540e-01
    x[4,4]    findWorstP[3,4]  -2.9819337795786785e-02
    x[4,4]    findWorstP[4,1]  2.6590072580922570e-02
    x[4,4]    findWorstP[4,2]  2.6590072580922570e-02
    x[4,4]    findWorstP[4,3]  2.6590072580922570e-02
    x[4,4]    findWorstP[4,5]  2.6590072580922570e-02
    x[4,4]    findWorstP[5,4]  -2.2351001290445924e-01
    x[4,5]    allocateEach[5]  1
    x[4,5]    findWorstP[1,4]  -0.0837103519111785
    x[4,5]    findWorstP[2,4]  -1.0767509688761037e-01
    x[4,5]    findWorstP[3,4]  -1.1307618258747676e-01
    x[4,5]    findWorstP[4,1]  1.5383027759622991e-01
    x[4,5]    findWorstP[4,2]  1.5383027759622991e-01
    x[4,5]    findWorstP[4,3]  1.5383027759622991e-01
    x[4,5]    findWorstP[4,5]  1.5383027759622991e-01
    x[4,5]    findWorstP[5,4]  -1.2577068298045216e-01
    x[4,6]    allocateEach[6]  1
    x[4,6]    findWorstP[1,4]  -5.3214643809151155e-02
    x[4,6]    findWorstP[2,4]  -1.4567102161492668e-01
    x[4,6]    findWorstP[3,4]  -2.2279433163939194e-01
    x[4,6]    findWorstP[4,1]  8.9298613738777483e-02
    x[4,6]    findWorstP[4,2]  8.9298613738777483e-02
    x[4,6]    findWorstP[4,3]  8.9298613738777483e-02
    x[4,6]    findWorstP[4,5]  8.9298613738777483e-02
    x[4,6]    findWorstP[5,4]  -1.1439564116044545e-01
    x[4,7]    allocateEach[7]  1
    x[4,7]    findWorstP[1,4]  -1.4746521239392529e-01
    x[4,7]    findWorstP[2,4]  -2.3812377641935355e-02
    x[4,7]    findWorstP[3,4]  -1.9790010969576215e-02
    x[4,7]    findWorstP[4,1]  9.5438753396855966e-02
    x[4,7]    findWorstP[4,2]  9.5438753396855966e-02
    x[4,7]    findWorstP[4,3]  9.5438753396855966e-02
    x[4,7]    findWorstP[4,5]  9.5438753396855966e-02
    x[4,7]    findWorstP[5,4]  -1.3475601013239019e-01
    x[5,1]    allocateEach[1]  1
    x[5,1]    findWorstP[1,5]  -1.7260521875229268e-01
    x[5,1]    findWorstP[2,5]  -1.6091334052499098e-01
    x[5,1]    findWorstP[3,5]  -4.0721753341243366e-02
    x[5,1]    findWorstP[4,5]  -1.7199270750920162e-01
    x[5,1]    findWorstP[5,1]  1.1680925297519477e-01
    x[5,1]    findWorstP[5,2]  1.1680925297519477e-01
    x[5,1]    findWorstP[5,3]  1.1680925297519477e-01
    x[5,1]    findWorstP[5,4]  1.1680925297519477e-01
    x[5,2]    allocateEach[2]  1
    x[5,2]    findWorstP[1,5]  -2.3953926291849062e-01
    x[5,2]    findWorstP[2,5]  -1.8023093211874225e-01
    x[5,2]    findWorstP[3,5]  -1.2995589782623293e-01
    x[5,2]    findWorstP[4,5]  -1.4548863128203365e-01
    x[5,2]    findWorstP[5,1]  2.3419203747072604e-03
    x[5,2]    findWorstP[5,2]  2.3419203747072604e-03
    x[5,2]    findWorstP[5,3]  2.3419203747072604e-03
    x[5,2]    findWorstP[5,4]  2.3419203747072604e-03
    x[5,3]    allocateEach[3]  1
    x[5,3]    findWorstP[1,5]  -6.4561884033161330e-03
    x[5,3]    findWorstP[2,5]  -1.3584242278956410e-02
    x[5,3]    findWorstP[3,5]  -2.1997358346952023e-01
    x[5,3]    findWorstP[4,5]  -1.4536823638677721e-01
    x[5,3]    findWorstP[5,1]  4.3445012665487746e-02
    x[5,3]    findWorstP[5,2]  4.3445012665487746e-02
    x[5,3]    findWorstP[5,3]  4.3445012665487746e-02
    x[5,3]    findWorstP[5,4]  4.3445012665487746e-02
    x[5,4]    allocateEach[4]  1
    x[5,4]    findWorstP[1,5]  -5.2456530776943580e-02
    x[5,4]    findWorstP[2,5]  -1.6834472012465540e-01
    x[5,4]    findWorstP[3,5]  -2.9819337795786785e-02
    x[5,4]    findWorstP[4,5]  -2.6590072580922570e-02
    x[5,4]    findWorstP[5,1]  2.2351001290445924e-01
    x[5,4]    findWorstP[5,2]  2.2351001290445924e-01
    x[5,4]    findWorstP[5,3]  2.2351001290445924e-01
    x[5,4]    findWorstP[5,4]  2.2351001290445924e-01
    x[5,5]    allocateEach[5]  1
    x[5,5]    findWorstP[1,5]  -0.0837103519111785
    x[5,5]    findWorstP[2,5]  -1.0767509688761037e-01
    x[5,5]    findWorstP[3,5]  -1.1307618258747676e-01
    x[5,5]    findWorstP[4,5]  -1.5383027759622991e-01
    x[5,5]    findWorstP[5,1]  1.2577068298045216e-01
    x[5,5]    findWorstP[5,2]  1.2577068298045216e-01
    x[5,5]    findWorstP[5,3]  1.2577068298045216e-01
    x[5,5]    findWorstP[5,4]  1.2577068298045216e-01
    x[5,6]    allocateEach[6]  1
    x[5,6]    findWorstP[1,5]  -5.3214643809151155e-02
    x[5,6]    findWorstP[2,5]  -1.4567102161492668e-01
    x[5,6]    findWorstP[3,5]  -2.2279433163939194e-01
    x[5,6]    findWorstP[4,5]  -8.9298613738777483e-02
    x[5,6]    findWorstP[5,1]  1.1439564116044545e-01
    x[5,6]    findWorstP[5,2]  1.1439564116044545e-01
    x[5,6]    findWorstP[5,3]  1.1439564116044545e-01
    x[5,6]    findWorstP[5,4]  1.1439564116044545e-01
    x[5,7]    allocateEach[7]  1
    x[5,7]    findWorstP[1,5]  -1.4746521239392529e-01
    x[5,7]    findWorstP[2,5]  -2.3812377641935355e-02
    x[5,7]    findWorstP[3,5]  -1.9790010969576215e-02
    x[5,7]    findWorstP[4,5]  -9.5438753396855966e-02
    x[5,7]    findWorstP[5,1]  1.3475601013239019e-01
    x[5,7]    findWorstP[5,2]  1.3475601013239019e-01
    x[5,7]    findWorstP[5,3]  1.3475601013239019e-01
    x[5,7]    findWorstP[5,4]  1.3475601013239019e-01
    MARKER    'MARKER'                 'INTEND'
RHS
    RHS1      allocateEach[1]  1
    RHS1      allocateEach[2]  1
    RHS1      allocateEach[3]  1
    RHS1      allocateEach[4]  1
    RHS1      allocateEach[5]  1
    RHS1      allocateEach[6]  1
    RHS1      allocateEach[7]  1
    RHS1      allocateAllCash  1
BOUNDS
 UP BND1      z         1
 MI BND1      cashProportion[1]
 UP BND1      cashProportion[1]  1
 MI BND1      cashProportion[2]
 UP BND1      cashProportion[2]  1
 MI BND1      cashProportion[3]
 UP BND1      cashProportion[3]  1
 MI BND1      cashProportion[4]
 UP BND1      cashProportion[4]  1
 MI BND1      cashProportion[5]
 UP BND1      cashProportion[5]  1
 BV BND1      x[1,1]  
 BV BND1      x[1,2]  
 BV BND1      x[1,3]  
 BV BND1      x[1,4]  
 BV BND1      x[1,5]  
 BV BND1      x[1,6]  
 BV BND1      x[1,7]  
 BV BND1      x[2,1]  
 BV BND1      x[2,2]  
 BV BND1      x[2,3]  
 BV BND1      x[2,4]  
 BV BND1      x[2,5]  
 BV BND1      x[2,6]  
 BV BND1      x[2,7]  
 BV BND1      x[3,1]  
 BV BND1      x[3,2]  
 BV BND1      x[3,3]  
 BV BND1      x[3,4]  
 BV BND1      x[3,5]  
 BV BND1      x[3,6]  
 BV BND1      x[3,7]  
 BV BND1      x[4,1]  
 BV BND1      x[4,2]  
 BV BND1      x[4,3]  
 BV BND1      x[4,4]  
 BV BND1      x[4,5]  
 BV BND1      x[4,6]  
 BV BND1      x[4,7]  
 BV BND1      x[5,1]  
 BV BND1      x[5,2]  
 BV BND1      x[5,3]  
 BV BND1      x[5,4]  
 BV BND1      x[5,5]  
 BV BND1      x[5,6]  
 BV BND1      x[5,7]  
ENDATA
